(benchmark gametime
:status unknown
:logic QF_AUFBV
:extrafuns ((gtINDEX49  BitVec[32]))
:extrafuns ((gtFIELD__bitsForTID0__gtAGG____anonstruct_D_Work_4  Array[32:32]))
:extrafuns ((gtINDEX50  BitVec[32]))
:extrafuns ((gtAGG__rtDWork  BitVec[32]))
:extrafuns ((gtINDEX47  BitVec[32]))
:extrafuns ((gtINDEX48  BitVec[32]))
:extrafuns ((gtINDEX45  BitVec[32]))
:extrafuns ((gtINDEX46  BitVec[32]))
:extrafuns ((gtINDEX43  BitVec[32]))
:extrafuns ((gtINDEX44  BitVec[32]))
:extrafuns ((gtINDEX42  BitVec[32]))
:extrafuns ((gtINDEX41  BitVec[32]))
:extrafuns ((gtINDEX40  BitVec[32]))
:extrafuns ((gtINDEX39  BitVec[32]))
:extrafuns ((gtINDEX37  BitVec[32]))
:extrafuns ((gtINDEX38  BitVec[32]))
:extrafuns ((gtINDEX35  BitVec[32]))
:extrafuns ((gtINDEX36  BitVec[32]))
:extrafuns ((gtINDEX33  BitVec[32]))
:extrafuns ((gtINDEX34  BitVec[32]))
:extrafuns ((gtINDEX31  BitVec[32]))
:extrafuns ((gtINDEX32  BitVec[32]))
:extrafuns ((gtINDEX29  BitVec[32]))
:extrafuns ((gtINDEX30  BitVec[32]))
:extrafuns ((gtINDEX27  BitVec[32]))
:extrafuns ((gtINDEX28  BitVec[32]))
:extrafuns ((gtINDEX25  BitVec[32]))
:extrafuns ((gtINDEX26  BitVec[32]))
:extrafuns ((gtINDEX23  BitVec[32]))
:extrafuns ((gtINDEX24  BitVec[32]))
:extrafuns ((gtINDEX21  BitVec[32]))
:extrafuns ((gtINDEX22  BitVec[32]))
:extrafuns ((gtINDEX20  BitVec[32]))
:extrafuns ((gtINDEX19  BitVec[32]))
:extrafuns ((gtINDEX18  BitVec[32]))
:extrafuns ((gtINDEX16  BitVec[32]))
:extrafuns ((gtINDEX17  BitVec[32]))
:extrafuns ((gtINDEX14  BitVec[32]))
:extrafuns ((gtINDEX15  BitVec[32]))
:extrafuns ((gtINDEX12  BitVec[32]))
:extrafuns ((gtINDEX13  BitVec[32]))
:extrafuns ((gtINDEX10  BitVec[32]))
:extrafuns ((gtINDEX11  BitVec[32]))
:extrafuns ((gtINDEX8  BitVec[32]))
:extrafuns ((gtINDEX9  BitVec[32]))
:extrafuns ((gtINDEX6  BitVec[32]))
:extrafuns ((gtINDEX7  BitVec[32]))
:extrafuns ((gtINDEX4  BitVec[32]))
:extrafuns ((gtINDEX5  BitVec[32]))
:extrafuns ((gtINDEX2  BitVec[32]))
:extrafuns ((gtINDEX3  BitVec[32]))
:extrafuns ((gtINDEX0  BitVec[32]))
:extrafuns ((gtINDEX1  BitVec[32]))
:extrafuns ((gtFIELD__is_Eng__gtAGG____anonstruct_bitsForTID0_5_1_  Array[32:1]))
:extrafuns ((gtFIELD__is_Eng__gtAGG____anonstruct_bitsForTID0_5_2_  Array[32:1]))
:extrafuns ((sf_previousEvent_1_  BitVec[32]))
:extrafuns ((sfEvent__2_  BitVec[32]))
:extrafuns ((gtFIELD__is_Eng__gtAGG____anonstruct_bitsForTID0_5  Array[32:1]))
:extrafuns ((gtFIELD__sent__gtAGG____anonstruct_D_Work_4_1_  Array[32:32]))
:extrafuns ((gtFIELD__sent__gtAGG____anonstruct_D_Work_4_2_  Array[32:32]))
:extrafuns ((gtFIELD__is_active_Eng__gtAGG____anonstruct_bitsForTID0_5  Array[32:1]))
:extrafuns ((gtFIELD__is_active_PURI__gtAGG____anonstruct_bitsForTID0_5  Array[32:1]))
:extrafuns ((sfEvent__1_  BitVec[32]))
:extrafuns ((gtFIELD__is_PVRP__gtAGG____anonstruct_bitsForTID0_5  Array[32:2]))
:extrafuns ((gtFIELD__is_active_PVRP__gtAGG____anonstruct_bitsForTID0_5  Array[32:1]))
:extrafuns ((gtFIELD__is_PPVARP__gtAGG____anonstruct_bitsForTID0_5  Array[32:2]))
:extrafuns ((gtFIELD__is_active_PPVARP__gtAGG____anonstruct_bitsForTID0_5  Array[32:1]))
:extrafuns ((gtFIELD__is_active_PLRI__gtAGG____anonstruct_bitsForTID0_5  Array[32:1]))
:extrafuns ((gtFIELD__is_active_PAVI__gtAGG____anonstruct_bitsForTID0_5  Array[32:1]))
:extrafuns ((sfEvent_  BitVec[32]))
:extrafuns ((gtFIELD__sent__gtAGG____anonstruct_D_Work_4  Array[32:32]))
:extrapreds ((constraint94 ))
:extrapreds ((constraint93 ))
:extrapreds ((constraint92 ))
:extrapreds ((constraint91 ))
:extrapreds ((constraint90 ))
:extrapreds ((constraint89 ))
:extrapreds ((constraint88 ))
:extrapreds ((constraint87 ))
:extrapreds ((constraint86 ))
:extrapreds ((constraint85 ))
:extrapreds ((constraint84 ))
:extrapreds ((constraint83 ))
:extrapreds ((constraint82 ))
:extrapreds ((constraint81 ))
:extrapreds ((constraint80 ))
:extrapreds ((constraint79 ))
:extrapreds ((constraint78 ))
:extrapreds ((constraint77 ))
:extrapreds ((constraint76 ))
:extrapreds ((constraint75 ))
:extrapreds ((constraint74 ))
:extrapreds ((constraint73 ))
:extrapreds ((constraint72 ))
:extrapreds ((constraint71 ))
:extrapreds ((constraint70 ))
:extrapreds ((constraint69 ))
:extrapreds ((constraint68 ))
:extrapreds ((constraint67 ))
:extrapreds ((constraint66 ))
:extrapreds ((constraint65 ))
:extrapreds ((constraint64 ))
:extrapreds ((constraint63 ))
:extrapreds ((constraint62 ))
:extrapreds ((constraint61 ))
:extrapreds ((constraint60 ))
:extrapreds ((constraint59 ))
:extrapreds ((constraint58 ))
:extrapreds ((constraint57 ))
:extrapreds ((constraint56 ))
:extrapreds ((constraint55 ))
:extrapreds ((constraint54 ))
:extrapreds ((constraint53 ))
:extrapreds ((constraint52 ))
:extrapreds ((constraint51 ))
:extrapreds ((constraint50 ))
:extrapreds ((constraint49 ))
:extrapreds ((constraint48 ))
:extrapreds ((constraint47 ))
:extrapreds ((constraint46 ))
:extrapreds ((constraint45 ))
:extrapreds ((constraint44 ))
:extrapreds ((constraint43 ))
:extrapreds ((constraint42 ))
:extrapreds ((constraint41 ))
:extrapreds ((constraint40 ))
:extrapreds ((constraint39 ))
:extrapreds ((constraint38 ))
:extrapreds ((constraint37 ))
:extrapreds ((constraint36 ))
:extrapreds ((constraint35 ))
:extrapreds ((constraint34 ))
:extrapreds ((constraint33 ))
:extrapreds ((constraint32 ))
:extrapreds ((constraint31 ))
:extrapreds ((constraint30 ))
:extrapreds ((constraint29 ))
:extrapreds ((constraint28 ))
:extrapreds ((constraint27 ))
:extrapreds ((constraint26 ))
:extrapreds ((constraint25 ))
:extrapreds ((constraint24 ))
:extrapreds ((constraint23 ))
:extrapreds ((constraint22 ))
:extrapreds ((constraint21 ))
:extrapreds ((constraint20 ))
:extrapreds ((constraint19 ))
:extrapreds ((constraint18 ))
:extrapreds ((constraint17 ))
:extrapreds ((constraint16 ))
:extrapreds ((constraint15 ))
:extrapreds ((constraint14 ))
:extrapreds ((constraint13 ))
:extrapreds ((constraint12 ))
:extrapreds ((constraint11 ))
:extrapreds ((constraint10 ))
:extrapreds ((constraint9 ))
:extrapreds ((constraint8 ))
:extrapreds ((constraint7 ))
:extrapreds ((constraint6 ))
:extrapreds ((constraint5 ))
:extrapreds ((constraint4 ))
:extrapreds ((constraint3 ))
:extrapreds ((constraint2 ))
:extrapreds ((constraint1 ))
:extrapreds ((constraint0 ))
:formula
(flet ($x489 (and constraint0 constraint1 constraint2 constraint3 constraint4 constraint5 constraint6 constraint7 constraint8 constraint9 constraint10 constraint11 constraint12 constraint13 constraint14 constraint15 constraint16 constraint17 constraint18 constraint19 constraint20 constraint21 constraint22 constraint23 constraint24 constraint25 constraint26 constraint27 constraint28 constraint29 constraint30 constraint31 constraint32 constraint33 constraint34 constraint35 constraint36 constraint37 constraint38 constraint39 constraint40 constraint41 constraint42 constraint43 constraint44 constraint45 constraint46 constraint47 constraint48 constraint49 constraint50 constraint51 constraint52 constraint53 constraint54 constraint55 constraint56 constraint57 constraint58 constraint59 constraint60 constraint61 constraint62 constraint63 constraint64 constraint65 constraint66 constraint67 constraint68 constraint69 constraint70 constraint71 constraint72 constraint73 constraint74 constraint75 constraint76 constraint77 constraint78 constraint79 constraint80 constraint81 constraint82 constraint83 constraint84 constraint85 constraint86 constraint87 constraint88 constraint89 constraint90 constraint91 constraint92 constraint93 constraint94))
(flet ($x297 (= gtINDEX50 (select gtFIELD__bitsForTID0__gtAGG____anonstruct_D_Work_4 gtINDEX49)))
(flet ($x293 (= gtINDEX48 (select gtFIELD__bitsForTID0__gtAGG____anonstruct_D_Work_4 gtINDEX47)))
(flet ($x289 (= gtINDEX46 (select gtFIELD__bitsForTID0__gtAGG____anonstruct_D_Work_4 gtINDEX45)))
(flet ($x285 (= gtINDEX44 (select gtFIELD__bitsForTID0__gtAGG____anonstruct_D_Work_4 gtINDEX43)))
(flet ($x277 (= gtINDEX38 (select gtFIELD__bitsForTID0__gtAGG____anonstruct_D_Work_4 gtINDEX37)))
(flet ($x273 (= gtINDEX36 (select gtFIELD__bitsForTID0__gtAGG____anonstruct_D_Work_4 gtINDEX35)))
(flet ($x269 (= gtINDEX34 (select gtFIELD__bitsForTID0__gtAGG____anonstruct_D_Work_4 gtINDEX33)))
(flet ($x265 (= gtINDEX32 (select gtFIELD__bitsForTID0__gtAGG____anonstruct_D_Work_4 gtINDEX31)))
(flet ($x261 (= gtINDEX30 (select gtFIELD__bitsForTID0__gtAGG____anonstruct_D_Work_4 gtINDEX29)))
(flet ($x257 (= gtINDEX28 (select gtFIELD__bitsForTID0__gtAGG____anonstruct_D_Work_4 gtINDEX27)))
(flet ($x253 (= gtINDEX26 (select gtFIELD__bitsForTID0__gtAGG____anonstruct_D_Work_4 gtINDEX25)))
(flet ($x249 (= gtINDEX24 (select gtFIELD__bitsForTID0__gtAGG____anonstruct_D_Work_4 gtINDEX23)))
(flet ($x245 (= gtINDEX22 (select gtFIELD__bitsForTID0__gtAGG____anonstruct_D_Work_4 gtINDEX21)))
(flet ($x238 (= gtINDEX17 (select gtFIELD__bitsForTID0__gtAGG____anonstruct_D_Work_4 gtINDEX16)))
(flet ($x234 (= gtINDEX15 (select gtFIELD__bitsForTID0__gtAGG____anonstruct_D_Work_4 gtINDEX14)))
(flet ($x230 (= gtINDEX13 (select gtFIELD__bitsForTID0__gtAGG____anonstruct_D_Work_4 gtINDEX12)))
(flet ($x226 (= gtINDEX11 (select gtFIELD__bitsForTID0__gtAGG____anonstruct_D_Work_4 gtINDEX10)))
(flet ($x222 (= gtINDEX9 (select gtFIELD__bitsForTID0__gtAGG____anonstruct_D_Work_4 gtINDEX8)))
(flet ($x218 (= gtINDEX7 (select gtFIELD__bitsForTID0__gtAGG____anonstruct_D_Work_4 gtINDEX6)))
(flet ($x214 (= gtINDEX5 (select gtFIELD__bitsForTID0__gtAGG____anonstruct_D_Work_4 gtINDEX4)))
(flet ($x210 (= gtINDEX3 (select gtFIELD__bitsForTID0__gtAGG____anonstruct_D_Work_4 gtINDEX2)))
(flet ($x206 (= gtINDEX1 (select gtFIELD__bitsForTID0__gtAGG____anonstruct_D_Work_4 gtINDEX0)))
(let (?x190 (extract[0:0] bv1[32]))
(let (?x200 (store gtFIELD__is_Eng__gtAGG____anonstruct_bitsForTID0_5_1_ gtINDEX50 ?x190))
(flet ($x385 (iff constraint43 (= gtFIELD__is_Eng__gtAGG____anonstruct_bitsForTID0_5_2_ ?x200)))
(let (?x196 (select gtFIELD__is_Eng__gtAGG____anonstruct_bitsForTID0_5_1_ gtINDEX48))
(let (?x191 (store gtFIELD__is_Eng__gtAGG____anonstruct_bitsForTID0_5 gtINDEX46 ?x190))
(flet ($x379 (iff constraint40 (= gtFIELD__is_Eng__gtAGG____anonstruct_bitsForTID0_5_1_ ?x191)))
(let (?x187 (zero_extend[31] (select gtFIELD__is_Eng__gtAGG____anonstruct_bitsForTID0_5 gtINDEX44)))
(let (?x183 (store gtFIELD__sent__gtAGG____anonstruct_D_Work_4_1_ gtINDEX42 bv0[32]))
(flet ($x375 (iff constraint38 (= gtFIELD__sent__gtAGG____anonstruct_D_Work_4_2_ ?x183)))
(let (?x108 (bvmul bv4294967295[32] bv1[32]))
(flet ($x181 (= (select gtFIELD__sent__gtAGG____anonstruct_D_Work_4_1_ gtINDEX41) ?x108))
(flet ($x177 (= (select gtFIELD__sent__gtAGG____anonstruct_D_Work_4_1_ gtINDEX40) bv9[32]))
(flet ($x173 (= (select gtFIELD__sent__gtAGG____anonstruct_D_Work_4_1_ gtINDEX39) bv4[32]))
(let (?x169 (zero_extend[31] (select gtFIELD__is_Eng__gtAGG____anonstruct_bitsForTID0_5 gtINDEX38)))
(let (?x163 (select gtFIELD__is_active_Eng__gtAGG____anonstruct_bitsForTID0_5 gtINDEX36))
(let (?x157 (select gtFIELD__is_active_PURI__gtAGG____anonstruct_bitsForTID0_5 gtINDEX34))
(let (?x151 (select gtFIELD__is_PVRP__gtAGG____anonstruct_bitsForTID0_5 gtINDEX32))
(let (?x146 (select gtFIELD__is_active_PVRP__gtAGG____anonstruct_bitsForTID0_5 gtINDEX30))
(let (?x136 (select gtFIELD__is_PPVARP__gtAGG____anonstruct_bitsForTID0_5 gtINDEX28))
(let (?x131 (select gtFIELD__is_active_PPVARP__gtAGG____anonstruct_bitsForTID0_5 gtINDEX26))
(let (?x125 (select gtFIELD__is_active_PLRI__gtAGG____anonstruct_bitsForTID0_5 gtINDEX24))
(let (?x119 (select gtFIELD__is_active_PAVI__gtAGG____anonstruct_bitsForTID0_5 gtINDEX22))
(flet ($x110 (= gtFIELD__sent__gtAGG____anonstruct_D_Work_4_1_ (store gtFIELD__sent__gtAGG____anonstruct_D_Work_4 gtINDEX20 ?x108)))
(flet ($x105 (= (select gtFIELD__sent__gtAGG____anonstruct_D_Work_4 gtINDEX19) bv9[32]))
(flet ($x100 (= (select gtFIELD__sent__gtAGG____anonstruct_D_Work_4 gtINDEX18) bv4[32]))
(let (?x96 (zero_extend[31] (select gtFIELD__is_Eng__gtAGG____anonstruct_bitsForTID0_5 gtINDEX17)))
(let (?x90 (select gtFIELD__is_active_Eng__gtAGG____anonstruct_bitsForTID0_5 gtINDEX15))
(let (?x84 (select gtFIELD__is_active_PURI__gtAGG____anonstruct_bitsForTID0_5 gtINDEX13))
(let (?x78 (select gtFIELD__is_PVRP__gtAGG____anonstruct_bitsForTID0_5 gtINDEX11))
(let (?x73 (select gtFIELD__is_active_PVRP__gtAGG____anonstruct_bitsForTID0_5 gtINDEX9))
(let (?x60 (select gtFIELD__is_PPVARP__gtAGG____anonstruct_bitsForTID0_5 gtINDEX7))
(let (?x55 (select gtFIELD__is_active_PPVARP__gtAGG____anonstruct_bitsForTID0_5 gtINDEX5))
(let (?x49 (select gtFIELD__is_active_PLRI__gtAGG____anonstruct_bitsForTID0_5 gtINDEX3))
(let (?x42 (select gtFIELD__is_active_PAVI__gtAGG____anonstruct_bitsForTID0_5 gtINDEX1))
(flet ($x488 (and (iff constraint0 (not (= sfEvent_ bv8[32]))) (iff constraint1 (not (not (= (zero_extend[31] ?x42) bv0[32])))) (iff constraint2 (not (not (= (zero_extend[31] ?x49) bv0[32])))) (iff constraint3 (not (= (zero_extend[31] ?x55) bv0[32]))) (iff constraint4 (= (zero_extend[30] ?x60) bv1[32])) (iff constraint5 (not (= sfEvent_ bv4[32]))) (iff constraint6 (not (= sfEvent_ bv5[32]))) (iff constraint7 (not (= sfEvent_ bv1[32]))) (iff constraint8 (not (= (zero_extend[31] ?x73) bv0[32]))) (iff constraint9 (= (zero_extend[30] ?x78) bv1[32])) (iff constraint10 (not (= sfEvent_ bv0[32]))) (iff constraint11 (not (= sfEvent_ bv4[32]))) (iff constraint12 (not (not (= (zero_extend[31] ?x84) bv0[32])))) (iff constraint13 (not (= (zero_extend[31] ?x90) bv0[32]))) (iff constraint14 (= ?x96 bv1[32])) (iff constraint15 (not $x100)) (iff constraint16 $x105) (iff constraint17 $x110) (iff constraint18 (= sf_previousEvent_1_ sfEvent_)) (iff constraint19 (= sfEvent__1_ bv6[32])) (iff constraint20 (not (= sfEvent__1_ bv8[32]))) (iff constraint21 (not (not (= (zero_extend[31] ?x119) bv0[32])))) (iff constraint22 (not (not (= (zero_extend[31] ?x125) bv0[32])))) (iff constraint23 (not (= (zero_extend[31] ?x131) bv0[32]))) (iff constraint24 (= (zero_extend[30] ?x136) bv1[32])) (iff constraint25 (not (= sfEvent__1_ bv4[32]))) (iff constraint26 (not (= sfEvent__1_ bv5[32]))) (iff constraint27 (not (= sfEvent__1_ bv1[32]))) (iff constraint28 (not (= (zero_extend[31] ?x146) bv0[32]))) (iff constraint29 (= (zero_extend[30] ?x151) bv1[32])) (iff constraint30 (not (= sfEvent__1_ bv0[32]))) (iff constraint31 (not (= sfEvent__1_ bv4[32]))) (iff constraint32 (not (not (= (zero_extend[31] ?x157) bv0[32])))) (iff constraint33 (not (= (zero_extend[31] ?x163) bv0[32]))) (iff constraint34 (= ?x169 bv1[32])) (iff constraint35 (not $x173)) (iff constraint36 (not $x177)) (iff constraint37 $x181) $x375 (iff constraint39 (= ?x187 bv1[32])) $x379 (iff constraint41 (= sfEvent__2_ sf_previousEvent_1_)) (iff constraint42 (= (zero_extend[31] ?x196) bv1[32])) $x385 (iff constraint44 (= gtINDEX0 gtAGG__rtDWork)) (iff constraint45 $x206) (iff constraint46 (= gtINDEX2 gtAGG__rtDWork)) (iff constraint47 $x210) (iff constraint48 (= gtINDEX4 gtAGG__rtDWork)) (iff constraint49 $x214) (iff constraint50 (= gtINDEX6 gtAGG__rtDWork)) (iff constraint51 $x218) (iff constraint52 (= gtINDEX8 gtAGG__rtDWork)) (iff constraint53 $x222) (iff constraint54 (= gtINDEX10 gtAGG__rtDWork)) (iff constraint55 $x226) (iff constraint56 (= gtINDEX12 gtAGG__rtDWork)) (iff constraint57 $x230) (iff constraint58 (= gtINDEX14 gtAGG__rtDWork)) (iff constraint59 $x234) (iff constraint60 (= gtINDEX16 gtAGG__rtDWork)) (iff constraint61 $x238) (iff constraint62 (= gtINDEX18 gtAGG__rtDWork)) (iff constraint63 (= gtINDEX19 gtAGG__rtDWork)) (iff constraint64 (= gtINDEX20 gtAGG__rtDWork)) (iff constraint65 (= gtINDEX21 gtAGG__rtDWork)) (iff constraint66 $x245) (iff constraint67 (= gtINDEX23 gtAGG__rtDWork)) (iff constraint68 $x249) (iff constraint69 (= gtINDEX25 gtAGG__rtDWork)) (iff constraint70 $x253) (iff constraint71 (= gtINDEX27 gtAGG__rtDWork)) (iff constraint72 $x257) (iff constraint73 (= gtINDEX29 gtAGG__rtDWork)) (iff constraint74 $x261) (iff constraint75 (= gtINDEX31 gtAGG__rtDWork)) (iff constraint76 $x265) (iff constraint77 (= gtINDEX33 gtAGG__rtDWork)) (iff constraint78 $x269) (iff constraint79 (= gtINDEX35 gtAGG__rtDWork)) (iff constraint80 $x273) (iff constraint81 (= gtINDEX37 gtAGG__rtDWork)) (iff constraint82 $x277) (iff constraint83 (= gtINDEX39 gtAGG__rtDWork)) (iff constraint84 (= gtINDEX40 gtAGG__rtDWork)) (iff constraint85 (= gtINDEX41 gtAGG__rtDWork)) (iff constraint86 (= gtINDEX42 gtAGG__rtDWork)) (iff constraint87 (= gtINDEX43 gtAGG__rtDWork)) (iff constraint88 $x285) (iff constraint89 (= gtINDEX45 gtAGG__rtDWork)) (iff constraint90 $x289) (iff constraint91 (= gtINDEX47 gtAGG__rtDWork)) (iff constraint92 $x293) (iff constraint93 (= gtINDEX49 gtAGG__rtDWork)) (iff constraint94 $x297)))
(and $x488 $x489)))))))))))))))))))))))))))))))))))))))))))))))))))))))))))
)
